! pbeh-3c opt
%geom scan
D 9 0 1 6 = 0,360,36
end
end
%pal nprocs 16
end
%maxcore 4000

* xyz 0 1
C       -1.789762682      0.382415385     -0.636603851
C       -0.463662682     -0.375784615     -0.719613851
C        0.624357431      0.342506425      0.086417722
H        0.795642297      1.286170667     -0.448584216
H        1.581452846     -0.189228115      0.097258141
H        0.368612409      0.629735107      1.113620830
O       -0.725703145     -1.759092754     -0.494594695
H       -0.065358266     -0.360180838     -1.730891164
H       -1.555508920     -1.912947415     -1.031558033
O       -2.863158575     -0.543818405     -0.359868258
H       -1.986914053      0.861341389     -1.605016314
H       -1.799828196      1.145231162      0.141895224
H       -3.394982907     -0.616074676     -1.126762508
*
